--------------------------------------------------------------------------------(Solver execution current time: 0.0001838207244873047)
[INFO] Input Seed : 0
--------------------------------------------------------------------------------(Solver execution current time: 0.0002219676971435547)
[INFO] Input time limit : 30
--------------------------------------------------------------------------------(Solver execution current time: 0.0002510547637939453)
[INFO] Command line arguments read with no errors.
--------------------------------------------------------------------------------(Solver execution current time: 0.06396269798278809)
[INFO] Input file read with no errors.
--------------------------------------------------------------------------------(Solver execution current time: 0.06406998634338379)
[INFO] Starting solver.
--------------------------------------------------------------------------------(Solver execution current time: 0.06412363052368164)
[INFO] Starting construction
--------------------------------------------------------------------------------(Solver execution current time: 16.349419355392456)
[INFO] Finished construction
--------------------------------------------------------------------------------(Solver execution current time: 16.34951901435852)
[SOLUTION]
Basic Greedy Heuristic
Exec Time: 16.285298585891724
obj_value: -87; obj_routes: 31106.0
Route 1 : 91 44 22 122 46 191 144 30 81 92 75 16 95 77 10 116 80 192 146 69 180 66 169 130 70 177 166 3 175 195 181 19 49 119 41 170 141 110 103 40 149 140 
Route 2 : 78 68 178 168 59 51 151 6 88 106 14 188 114 56 156 37 62 12 162 159 112 137 33 99 199 27 127 133 83 183 65 165 
Route 3 : 1 101 17 23 58 123 158 117 13 113 53 52 152 84 94 184 72 172 194 82 153 182 5 105 67 25 125 48 148 74 174 167 
Route 4 : 57 96 34 196 157 73 134 173 63 163 93 193 90 190 36 136 
Route 5 : 100 200 9 109 97 197 64 79 164 179 28 128 35 135 71 38 138 171 
Route 6 : 85 185 7 107 18 118 76 39 176 139 98 8 108 198 
Route 7 : 43 47 60 143 160 147 15 115 54 154 
Route 8 : 45 145 32 132 
Route 9 : 24 86 26 126 124 186 
Route 10 : 
Route 11 : 
Route 12 : 
Route 13 : 
Route 14 : 
Route 15 : 
Route 16 : 
Route 17 : 
Route 18 : 
Route 19 : 
Route 20 : 
Route 21 : 

--------------------------------------------------------------------------------(Solver execution current time: 16.350832223892212)
[SOLUTION]
Solution after BasicGreedyLimitedHeterogeneousFleet
obj_value: -87; obj_routes: 31106.0
Route 1 : 91 44 22 122 46 191 144 30 81 92 75 16 95 77 10 116 80 192 146 69 180 66 169 130 70 177 166 3 175 195 181 19 49 119 41 170 141 110 103 40 149 140 
Route 2 : 78 68 178 168 59 51 151 6 88 106 14 188 114 56 156 37 62 12 162 159 112 137 33 99 199 27 127 133 83 183 65 165 
Route 3 : 1 101 17 23 58 123 158 117 13 113 53 52 152 84 94 184 72 172 194 82 153 182 5 105 67 25 125 48 148 74 174 167 
Route 4 : 57 96 34 196 157 73 134 173 63 163 93 193 90 190 36 136 
Route 5 : 100 200 9 109 97 197 64 79 164 179 28 128 35 135 71 38 138 171 
Route 6 : 85 185 7 107 18 118 76 39 176 139 98 8 108 198 
Route 7 : 43 47 60 143 160 147 15 115 54 154 
Route 8 : 45 145 32 132 
Route 9 : 24 86 26 126 124 186 
Route 10 : 
Route 11 : 
Route 12 : 
Route 13 : 
Route 14 : 
Route 15 : 
Route 16 : 
Route 17 : 
Route 18 : 
Route 19 : 
Route 20 : 
Route 21 : 

--------------------------------------------------------------------------------(Solver execution current time: 16.351147890090942)
[INFO] Starting metaheuristic
--------------------------------------------------------------------------------(Solver execution current time: 16.354182481765747)
[INFO] AGES EXCLUDED
--------------------------------------------------------------------------------(Solver execution current time: 16.355905771255493)
[INFO] Starting LNS
--------------------------------------------------------------------------------(Solver execution current time: 17.888487577438354)
[SOLUTION]
LNS
IT: 40
Exec Time: 1.529707908630371
obj_value: -87; obj_routes: 31106.0
Route 1 : 91 44 22 122 46 191 144 30 81 92 75 16 95 77 10 116 80 192 146 69 180 66 169 130 70 177 166 3 175 195 181 19 49 119 41 170 141 110 103 40 149 140 
Route 2 : 78 68 178 168 59 51 151 6 88 106 14 188 114 56 156 37 62 12 162 159 112 137 33 99 199 27 127 133 83 183 65 165 
Route 3 : 1 101 17 23 58 123 158 117 13 113 53 52 152 84 94 184 72 172 194 82 153 182 5 105 67 25 125 48 148 74 174 167 
Route 4 : 57 96 34 196 157 73 134 173 63 163 93 193 90 190 36 136 
Route 5 : 100 200 9 109 97 197 64 79 164 179 28 128 35 135 71 38 138 171 
Route 6 : 85 185 7 107 18 118 76 39 176 139 98 8 108 198 
Route 7 : 43 47 60 143 160 147 15 115 54 154 
Route 8 : 45 145 32 132 
Route 9 : 24 86 26 126 124 186 
Route 10 : 
Route 11 : 
Route 12 : 
Route 13 : 
Route 14 : 
Route 15 : 
Route 16 : 
Route 17 : 
Route 18 : 
Route 19 : 
Route 20 : 
Route 21 : 

--------------------------------------------------------------------------------(Solver execution current time: 17.893640518188477)
[INFO] Starting PartitionMaxRequestsHF
--------------------------------------------------------------------------------(Solver execution current time: 17.97802186012268)
[SOLUTION]
PartitionMaxRequestsHF
Exec Time: 0.08424687385559082
obj_value: -87; obj_routes: 31106.0
Route 1 : 91 44 22 122 46 191 144 30 81 92 75 16 95 77 10 116 80 192 146 69 180 66 169 130 70 177 166 3 175 195 181 19 49 119 41 170 141 110 103 40 149 140 
Route 2 : 78 68 178 168 59 51 151 6 88 106 14 188 114 56 156 37 62 12 162 159 112 137 33 99 199 27 127 133 83 183 65 165 
Route 3 : 1 101 17 23 58 123 158 117 13 113 53 52 152 84 94 184 72 172 194 82 153 182 5 105 67 25 125 48 148 74 174 167 
Route 4 : 57 96 34 196 157 73 134 173 63 163 93 193 90 190 36 136 
Route 5 : 100 200 9 109 97 197 64 79 164 179 28 128 35 135 71 38 138 171 
Route 6 : 85 185 7 107 18 118 76 39 176 139 98 8 108 198 
Route 7 : 43 47 60 143 160 147 15 115 54 154 
Route 8 : 45 145 32 132 
Route 9 : 24 86 26 126 124 186 
Route 10 : 
Route 11 : 
Route 12 : 
Route 13 : 
Route 14 : 
Route 15 : 
Route 16 : 
Route 17 : 
Route 18 : 
Route 19 : 
Route 20 : 
Route 21 : 

--------------------------------------------------------------------------------(Solver execution current time: 17.98177194595337)
[INFO] Starting OriginalPerturbation
--------------------------------------------------------------------------------(Solver execution current time: 22.33432626724243)
[SOLUTION]
Original Perturbation
Exec Time: 4.355602502822876
obj_value: -87; obj_routes: 31797.0
Route 1 : 91 44 22 122 46 191 144 30 81 92 75 16 95 77 10 116 80 192 146 69 180 66 169 130 70 177 166 3 175 195 181 19 49 119 41 170 141 110 103 40 149 140 
Route 2 : 78 68 178 168 59 51 151 6 88 106 14 188 114 56 156 37 62 12 162 159 112 137 33 99 199 27 127 133 83 183 65 165 
Route 3 : 1 101 17 23 58 123 158 117 13 113 53 52 152 84 94 184 72 172 194 82 153 182 5 105 25 125 74 174 
Route 4 : 57 96 34 196 157 73 134 173 63 163 93 193 90 190 
Route 5 : 100 200 9 109 97 197 64 79 164 179 28 128 35 135 71 171 
Route 6 : 85 185 7 107 18 118 76 39 176 139 98 8 108 198 
Route 7 : 43 47 60 143 160 147 15 115 
Route 8 : 45 145 54 154 48 148 
Route 9 : 24 86 26 126 124 186 
Route 10 : 
Route 11 : 38 138 32 132 36 136 
Route 12 : 
Route 13 : 67 167 
Route 14 : 
Route 15 : 
Route 16 : 
Route 17 : 
Route 18 : 
Route 19 : 
Route 20 : 
Route 21 : 

--------------------------------------------------------------------------------(Solver execution current time: 22.336318492889404)
[SOLUTION]
SBMath
IT: 1
ITs witout improving: 1
IT time: 5.982139587402344
Time since begin: 5.983177661895752
obj_value: -87; obj_routes: 31797.0
Route 1 : 91 44 22 122 46 191 144 30 81 92 75 16 95 77 10 116 80 192 146 69 180 66 169 130 70 177 166 3 175 195 181 19 49 119 41 170 141 110 103 40 149 140 
Route 2 : 78 68 178 168 59 51 151 6 88 106 14 188 114 56 156 37 62 12 162 159 112 137 33 99 199 27 127 133 83 183 65 165 
Route 3 : 1 101 17 23 58 123 158 117 13 113 53 52 152 84 94 184 72 172 194 82 153 182 5 105 25 125 74 174 
Route 4 : 57 96 34 196 157 73 134 173 63 163 93 193 90 190 
Route 5 : 100 200 9 109 97 197 64 79 164 179 28 128 35 135 71 171 
Route 6 : 85 185 7 107 18 118 76 39 176 139 98 8 108 198 
Route 7 : 43 47 60 143 160 147 15 115 
Route 8 : 45 145 54 154 48 148 
Route 9 : 24 86 26 126 124 186 
Route 10 : 
Route 11 : 38 138 32 132 36 136 
Route 12 : 
Route 13 : 67 167 
Route 14 : 
Route 15 : 
Route 16 : 
Route 17 : 
Route 18 : 
Route 19 : 
Route 20 : 
Route 21 : 

--------------------------------------------------------------------------------(Solver execution current time: 22.336578369140625)
[SOLUTION]
SBMath
IT: 1
ITs witout improving: 1
IT time: 5.982139587402344
Time since begin: 5.983177661895752
obj_value: -87; obj_routes: 31105.0
Route 1 : 91 44 22 122 46 191 144 30 81 92 75 16 95 77 10 116 80 192 146 69 180 66 169 130 70 177 166 3 175 195 181 19 49 119 41 170 141 110 103 40 149 140 
Route 2 : 78 68 178 168 59 51 151 6 88 106 14 188 114 56 156 37 62 12 162 159 112 137 33 99 199 27 127 133 83 183 65 165 
Route 3 : 1 101 17 23 58 123 158 117 13 113 53 52 152 84 94 184 72 172 194 82 153 182 5 105 67 25 125 48 148 74 174 167 
Route 4 : 57 96 34 196 157 73 134 173 63 163 93 193 90 190 36 136 
Route 5 : 100 200 9 109 97 197 64 79 164 179 28 128 35 135 71 38 138 171 
Route 6 : 85 185 7 107 18 118 76 39 176 139 98 8 108 198 
Route 7 : 43 47 60 143 160 147 15 115 
Route 8 : 45 145 32 132 
Route 9 : 24 86 26 126 124 186 
Route 10 : 54 154 
Route 11 : 
Route 12 : 
Route 13 : 
Route 14 : 
Route 15 : 
Route 16 : 
Route 17 : 
Route 18 : 
Route 19 : 
Route 20 : 
Route 21 : 

--------------------------------------------------------------------------------(Solver execution current time: 22.336811542510986)
[INFO] AGES EXCLUDED
--------------------------------------------------------------------------------(Solver execution current time: 22.338549375534058)
[INFO] Starting LNS
--------------------------------------------------------------------------------(Solver execution current time: 23.646989583969116)
[SOLUTION]
LNS
IT: 40
Exec Time: 1.3059649467468262
obj_value: -87; obj_routes: 31797.0
Route 1 : 91 44 22 122 46 191 144 30 81 92 75 16 95 77 10 116 80 192 146 69 180 66 169 130 70 177 166 3 175 195 181 19 49 119 41 170 141 110 103 40 149 140 
Route 2 : 78 68 178 168 59 51 151 6 88 106 14 188 114 56 156 37 62 12 162 159 112 137 33 99 199 27 127 133 83 183 65 165 
Route 3 : 1 101 17 23 58 123 158 117 13 113 53 52 152 84 94 184 72 172 194 82 153 182 5 105 25 125 74 174 
Route 4 : 57 96 34 196 157 73 134 173 63 163 93 193 90 190 
Route 5 : 100 200 9 109 97 197 64 79 164 179 28 128 35 135 71 171 
Route 6 : 85 185 7 107 18 118 76 39 176 139 98 8 108 198 
Route 7 : 43 47 60 143 160 147 15 115 
Route 8 : 45 145 54 154 48 148 
Route 9 : 24 86 26 126 124 186 
Route 10 : 
Route 11 : 38 138 32 132 36 136 
Route 12 : 
Route 13 : 67 167 
Route 14 : 
Route 15 : 
Route 16 : 
Route 17 : 
Route 18 : 
Route 19 : 
Route 20 : 
Route 21 : 

--------------------------------------------------------------------------------(Solver execution current time: 23.650007009506226)
[INFO] Starting PartitionMaxRequestsHF
--------------------------------------------------------------------------------(Solver execution current time: 23.70416784286499)
[SOLUTION]
PartitionMaxRequestsHF
Exec Time: 0.05404806137084961
Improvedobj_value: -87; obj_routes: 31106.0
Route 1 : 91 44 22 122 46 191 144 30 81 92 75 16 95 77 10 116 80 192 146 69 180 66 169 130 70 177 166 3 175 195 181 19 49 119 41 170 141 110 103 40 149 140 
Route 2 : 78 68 178 168 59 51 151 6 88 106 14 188 114 56 156 37 62 12 162 159 112 137 33 99 199 27 127 133 83 183 65 165 
Route 3 : 1 101 17 23 58 123 158 117 13 113 53 52 152 84 94 184 72 172 194 82 153 182 5 105 67 25 125 48 148 74 174 167 
Route 4 : 57 96 34 196 157 73 134 173 63 163 93 193 90 190 36 136 
Route 5 : 100 200 9 109 97 197 64 79 164 179 28 128 35 135 71 38 138 171 
Route 6 : 85 185 7 107 18 118 76 39 176 139 98 8 108 198 
Route 7 : 43 47 60 143 160 147 15 115 54 154 
Route 8 : 45 145 32 132 
Route 9 : 24 86 26 126 124 186 
Route 10 : 
Route 11 : 
Route 12 : 
Route 13 : 
Route 14 : 
Route 15 : 
Route 16 : 
Route 17 : 
Route 18 : 
Route 19 : 
Route 20 : 
Route 21 : 

--------------------------------------------------------------------------------(Solver execution current time: 23.70880651473999)
[INFO] Starting OriginalPerturbation
--------------------------------------------------------------------------------(Solver execution current time: 26.51544213294983)
[SOLUTION]
Original Perturbation
Exec Time: 2.810429811477661
obj_value: -87; obj_routes: 32063.0
Route 1 : 91 44 22 122 46 191 144 30 81 92 75 16 95 77 10 116 80 192 146 69 180 66 169 130 70 177 166 3 175 195 181 19 49 119 41 170 141 110 103 40 149 140 
Route 2 : 78 68 178 168 59 51 151 6 88 106 14 188 114 56 156 37 62 12 162 159 112 137 33 99 199 27 127 133 83 183 65 165 
Route 3 : 1 101 17 23 58 123 158 117 13 113 53 52 152 84 94 184 72 172 194 82 153 182 5 105 25 125 
Route 4 : 57 96 34 196 157 73 134 173 63 163 93 193 90 190 
Route 5 : 100 200 9 109 97 197 64 79 164 179 28 128 67 71 167 171 
Route 6 : 85 185 7 107 18 118 76 39 176 139 98 8 108 198 
Route 7 : 43 47 60 143 160 147 15 115 
Route 8 : 
Route 9 : 24 86 26 126 124 186 
Route 10 : 74 174 
Route 11 : 32 132 
Route 12 : 35 135 
Route 13 : 38 138 48 148 54 154 
Route 14 : 45 145 
Route 15 : 36 136 
Route 16 : 
Route 17 : 
Route 18 : 
Route 19 : 
Route 20 : 
Route 21 : 

--------------------------------------------------------------------------------(Solver execution current time: 26.517642498016357)
[SOLUTION]
SBMath
IT: 2
ITs witout improving: 2
IT time: 4.1808342933654785
Time since begin: 10.16450047492981
obj_value: -87; obj_routes: 32063.0
Route 1 : 91 44 22 122 46 191 144 30 81 92 75 16 95 77 10 116 80 192 146 69 180 66 169 130 70 177 166 3 175 195 181 19 49 119 41 170 141 110 103 40 149 140 
Route 2 : 78 68 178 168 59 51 151 6 88 106 14 188 114 56 156 37 62 12 162 159 112 137 33 99 199 27 127 133 83 183 65 165 
Route 3 : 1 101 17 23 58 123 158 117 13 113 53 52 152 84 94 184 72 172 194 82 153 182 5 105 25 125 
Route 4 : 57 96 34 196 157 73 134 173 63 163 93 193 90 190 
Route 5 : 100 200 9 109 97 197 64 79 164 179 28 128 67 71 167 171 
Route 6 : 85 185 7 107 18 118 76 39 176 139 98 8 108 198 
Route 7 : 43 47 60 143 160 147 15 115 
Route 8 : 
Route 9 : 24 86 26 126 124 186 
Route 10 : 74 174 
Route 11 : 32 132 
Route 12 : 35 135 
Route 13 : 38 138 48 148 54 154 
Route 14 : 45 145 
Route 15 : 36 136 
Route 16 : 
Route 17 : 
Route 18 : 
Route 19 : 
Route 20 : 
Route 21 : 

--------------------------------------------------------------------------------(Solver execution current time: 26.517931699752808)
[SOLUTION]
SBMath
IT: 2
ITs witout improving: 2
IT time: 4.1808342933654785
Time since begin: 10.16450047492981
obj_value: -87; obj_routes: 31105.0
Route 1 : 91 44 22 122 46 191 144 30 81 92 75 16 95 77 10 116 80 192 146 69 180 66 169 130 70 177 166 3 175 195 181 19 49 119 41 170 141 110 103 40 149 140 
Route 2 : 78 68 178 168 59 51 151 6 88 106 14 188 114 56 156 37 62 12 162 159 112 137 33 99 199 27 127 133 83 183 65 165 
Route 3 : 1 101 17 23 58 123 158 117 13 113 53 52 152 84 94 184 72 172 194 82 153 182 5 105 67 25 125 48 148 74 174 167 
Route 4 : 57 96 34 196 157 73 134 173 63 163 93 193 90 190 36 136 
Route 5 : 100 200 9 109 97 197 64 79 164 179 28 128 35 135 71 38 138 171 
Route 6 : 85 185 7 107 18 118 76 39 176 139 98 8 108 198 
Route 7 : 43 47 60 143 160 147 15 115 
Route 8 : 45 145 32 132 
Route 9 : 24 86 26 126 124 186 
Route 10 : 54 154 
Route 11 : 
Route 12 : 
Route 13 : 
Route 14 : 
Route 15 : 
Route 16 : 
Route 17 : 
Route 18 : 
Route 19 : 
Route 20 : 
Route 21 : 

--------------------------------------------------------------------------------(Solver execution current time: 26.518227577209473)
[INFO] AGES EXCLUDED
--------------------------------------------------------------------------------(Solver execution current time: 26.520243644714355)
[INFO] Starting LNS
--------------------------------------------------------------------------------(Solver execution current time: 27.973220348358154)
[SOLUTION]
LNS
IT: 40
Exec Time: 1.4504992961883545
obj_value: -87; obj_routes: 32063.0
Route 1 : 91 44 22 122 46 191 144 30 81 92 75 16 95 77 10 116 80 192 146 69 180 66 169 130 70 177 166 3 175 195 181 19 49 119 41 170 141 110 103 40 149 140 
Route 2 : 78 68 178 168 59 51 151 6 88 106 14 188 114 56 156 37 62 12 162 159 112 137 33 99 199 27 127 133 83 183 65 165 
Route 3 : 1 101 17 23 58 123 158 117 13 113 53 52 152 84 94 184 72 172 194 82 153 182 5 105 25 125 
Route 4 : 57 96 34 196 157 73 134 173 63 163 93 193 90 190 
Route 5 : 100 200 9 109 97 197 64 79 164 179 28 128 67 71 167 171 
Route 6 : 85 185 7 107 18 118 76 39 176 139 98 8 108 198 
Route 7 : 43 47 60 143 160 147 15 115 
Route 8 : 
Route 9 : 24 86 26 126 124 186 
Route 10 : 74 174 
Route 11 : 32 132 
Route 12 : 35 135 
Route 13 : 38 138 48 148 54 154 
Route 14 : 45 145 
Route 15 : 36 136 
Route 16 : 
Route 17 : 
Route 18 : 
Route 19 : 
Route 20 : 
Route 21 : 

--------------------------------------------------------------------------------(Solver execution current time: 27.97636890411377)
[INFO] Starting PartitionMaxRequestsHF
--------------------------------------------------------------------------------(Solver execution current time: 28.00545597076416)
[SOLUTION]
PartitionMaxRequestsHF
Exec Time: 0.02901625633239746
Improvedobj_value: -87; obj_routes: 31531.0
Route 1 : 91 44 22 122 46 191 144 30 81 92 75 16 95 77 10 116 80 192 146 69 180 66 169 130 70 177 166 3 175 195 181 19 49 119 41 170 141 110 103 40 149 140 
Route 2 : 78 68 178 168 59 51 151 6 88 106 14 188 114 56 156 37 62 12 162 159 112 137 33 99 199 27 127 133 83 183 65 165 
Route 3 : 57 96 34 196 157 73 134 173 63 163 93 193 90 190 36 136 
Route 4 : 85 185 7 107 18 118 76 39 176 139 98 8 108 198 
Route 5 : 45 145 32 132 
Route 6 : 24 86 26 126 124 186 
Route 7 : 1 101 17 23 58 123 158 117 13 113 53 52 152 84 94 184 72 172 194 82 153 182 5 105 25 125 74 174 
Route 8 : 43 47 60 143 160 147 15 115 
Route 9 : 100 200 9 109 97 197 64 79 164 179 28 128 67 71 167 171 
Route 10 : 35 135 
Route 11 : 38 138 48 148 54 154 
Route 12 : 
Route 13 : 
Route 14 : 
Route 15 : 
Route 16 : 
Route 17 : 
Route 18 : 
Route 19 : 
Route 20 : 
Route 21 : 

--------------------------------------------------------------------------------(Solver execution current time: 28.00770926475525)
[INFO] Starting OriginalPerturbation
--------------------------------------------------------------------------------(Solver execution current time: 29.22979712486267)
[SOLUTION]
Original Perturbation
Exec Time: 1.223853588104248
obj_value: -87; obj_routes: 31857.0
Route 1 : 91 44 22 122 46 191 144 30 81 92 75 16 95 77 10 116 80 192 146 69 180 66 169 130 70 177 166 3 175 195 181 19 49 119 41 170 141 110 103 40 149 140 
Route 2 : 78 68 178 168 59 51 151 6 88 106 14 188 114 56 156 37 62 12 162 159 112 137 33 99 199 27 127 133 83 183 65 165 
Route 3 : 1 101 17 23 58 123 158 117 13 113 53 52 152 84 94 184 72 172 194 82 153 182 5 105 
Route 4 : 57 96 34 196 157 73 134 173 63 163 93 193 90 190 
Route 5 : 100 200 9 109 97 197 64 79 164 179 28 128 67 71 167 171 
Route 6 : 85 185 7 107 18 118 76 39 176 139 98 8 108 198 
Route 7 : 43 47 60 143 160 147 15 115 
Route 8 : 25 125 
Route 9 : 24 86 26 126 124 186 
Route 10 : 48 148 
Route 11 : 45 145 
Route 12 : 36 136 
Route 13 : 54 154 
Route 14 : 35 135 
Route 15 : 38 138 74 32 132 174 
Route 16 : 
Route 17 : 
Route 18 : 
Route 19 : 
Route 20 : 
Route 21 : 

--------------------------------------------------------------------------------(Solver execution current time: 29.231993198394775)
[SOLUTION]
SBMath
IT: 3
ITs witout improving: 3
IT time: 2.713773012161255
Time since begin: 12.878851413726807
obj_value: -87; obj_routes: 31857.0
Route 1 : 91 44 22 122 46 191 144 30 81 92 75 16 95 77 10 116 80 192 146 69 180 66 169 130 70 177 166 3 175 195 181 19 49 119 41 170 141 110 103 40 149 140 
Route 2 : 78 68 178 168 59 51 151 6 88 106 14 188 114 56 156 37 62 12 162 159 112 137 33 99 199 27 127 133 83 183 65 165 
Route 3 : 1 101 17 23 58 123 158 117 13 113 53 52 152 84 94 184 72 172 194 82 153 182 5 105 
Route 4 : 57 96 34 196 157 73 134 173 63 163 93 193 90 190 
Route 5 : 100 200 9 109 97 197 64 79 164 179 28 128 67 71 167 171 
Route 6 : 85 185 7 107 18 118 76 39 176 139 98 8 108 198 
Route 7 : 43 47 60 143 160 147 15 115 
Route 8 : 25 125 
Route 9 : 24 86 26 126 124 186 
Route 10 : 48 148 
Route 11 : 45 145 
Route 12 : 36 136 
Route 13 : 54 154 
Route 14 : 35 135 
Route 15 : 38 138 74 32 132 174 
Route 16 : 
Route 17 : 
Route 18 : 
Route 19 : 
Route 20 : 
Route 21 : 

--------------------------------------------------------------------------------(Solver execution current time: 29.232277870178223)
[SOLUTION]
SBMath
IT: 3
ITs witout improving: 3
IT time: 2.713773012161255
Time since begin: 12.878851413726807
obj_value: -87; obj_routes: 31105.0
Route 1 : 91 44 22 122 46 191 144 30 81 92 75 16 95 77 10 116 80 192 146 69 180 66 169 130 70 177 166 3 175 195 181 19 49 119 41 170 141 110 103 40 149 140 
Route 2 : 78 68 178 168 59 51 151 6 88 106 14 188 114 56 156 37 62 12 162 159 112 137 33 99 199 27 127 133 83 183 65 165 
Route 3 : 1 101 17 23 58 123 158 117 13 113 53 52 152 84 94 184 72 172 194 82 153 182 5 105 67 25 125 48 148 74 174 167 
Route 4 : 57 96 34 196 157 73 134 173 63 163 93 193 90 190 36 136 
Route 5 : 100 200 9 109 97 197 64 79 164 179 28 128 35 135 71 38 138 171 
Route 6 : 85 185 7 107 18 118 76 39 176 139 98 8 108 198 
Route 7 : 43 47 60 143 160 147 15 115 
Route 8 : 45 145 32 132 
Route 9 : 24 86 26 126 124 186 
Route 10 : 54 154 
Route 11 : 
Route 12 : 
Route 13 : 
Route 14 : 
Route 15 : 
Route 16 : 
Route 17 : 
Route 18 : 
Route 19 : 
Route 20 : 
Route 21 : 

--------------------------------------------------------------------------------(Solver execution current time: 29.23251724243164)
[INFO] AGES EXCLUDED
--------------------------------------------------------------------------------(Solver execution current time: 29.234312772750854)
[INFO] Starting LNS
--------------------------------------------------------------------------------(Solver execution current time: 30.01819348335266)
[WARNING] Time Limit Exceeded
--------------------------------------------------------------------------------(Solver execution current time: 30.01833748817444)
[WARNING] Searching current best solution.
--------------------------------------------------------------------------------(Solver execution current time: 30.021985054016113)
[INFO] Algorithm execution time : 30.022806644439697
--------------------------------------------------------------------------------(Solver execution current time: 30.023481845855713)
[SOLUTION]
Final Solution Verification
====================================
Constraints verification: 
Homogenous Capacity Constraint OK
Time Windwos Constraint OK
Pickup and Delivery Constraint OK
Fixed Requests Constraint OK
Limited Fleet Constraint OK
Heterogeneous Fleet Constraint OK
====================================
Obj Func verification: 
SOLUTION COST OK
------------------------------------
ROUTES TOTAL COST OK
------------------------------------
REQUESTS TOTAL COST OK
------------------------------------
OBJECTIVE VALUE: -87
ROUTES VALUE: 31105.0
------------------------------------

Best Solution: 
obj_value: -87; obj_routes: 31105.0
Route 1 : 91 44 22 122 46 191 144 30 81 92 75 16 95 77 10 116 80 192 146 69 180 66 169 130 70 177 166 3 175 195 181 19 49 119 41 170 141 110 103 40 149 140 
Route 2 : 78 68 178 168 59 51 151 6 88 106 14 188 114 56 156 37 62 12 162 159 112 137 33 99 199 27 127 133 83 183 65 165 
Route 3 : 1 101 17 23 58 123 158 117 13 113 53 52 152 84 94 184 72 172 194 82 153 182 5 105 67 25 125 48 148 74 174 167 
Route 4 : 57 96 34 196 157 73 134 173 63 163 93 193 90 190 36 136 
Route 5 : 100 200 9 109 97 197 64 79 164 179 28 128 35 135 71 38 138 171 
Route 6 : 85 185 7 107 18 118 76 39 176 139 98 8 108 198 
Route 7 : 43 47 60 143 160 147 15 115 
Route 8 : 45 145 32 132 
Route 9 : 24 86 26 126 124 186 
Route 10 : 54 154 
Route 11 : 
Route 12 : 
Route 13 : 
Route 14 : 
Route 15 : 
Route 16 : 
Route 17 : 
Route 18 : 
Route 19 : 
Route 20 : 
Route 21 : 

--------------------------------------------------------------------------------